100
125 125
1 86 331
2 85 455
3 84 7
4 84 101
5 84 720
6 82 922
7 82 471
8 81 718
9 81 13
10 81 210
11 80 920
12 80 777
13 79 181
14 79 726
15 79 177
16 78 851
17 76 632
18 73 855
19 73 124
20 72 32
21 72 277
22 72 448
23 71 185
24 70 330
25 70 743
26 67 162
27 67 742
28 66 253
29 65 230
30 65 343
31 65 367
32 63 971
33 63 556
34 62 293
35 62 988
36 60 108
37 58 978
38 58 29
39 56 168
40 56 554
41 55 994
42 54 28
43 52 913
44 52 113
45 51 703
46 51 286
47 48 952
48 46 697
49 45 350
50 45 921
51 45 316
52 44 306
53 44 895
54 44 240
55 43 249
56 43 866
57 43 864
58 41 568
59 41 377
60 40 816
61 40 871
62 40 137
63 39 617
64 38 813
65 36 531
66 36 833
67 34 164
68 34 441
69 33 803
70 32 442
71 31 617
72 31 534
73 29 196
74 29 644
75 29 858
76 28 110
77 27 430
78 26 979
79 26 958
80 25 947
81 24 458
82 23 311
83 23 287
84 23 595
85 23 973
86 22 462
87 22 628
88 21 887
89 20 269
90 19 410
91 18 214
92 18 586
93 17 659
94 16 353
95 16 676
96 15 710
97 13 191
98 12 264
99 12 364
100 12 80
